100 10
533 160
618 742
603 67
666 181
752 389
373 168
382 394
288 519
674 246
259 398
450 236
836 789
110 314
458 108
673 667
719 864
222 694
558 277
420 367
268 259
554 547
699 766
577 204
771 880
646 70
861 511
594 499
420 562
38 801
770 322
199 244
293 427
430 370
635 267
904 385
573 782
773 803
479 348
306 573
421 620
486 566
230 689
616 600
383 378
418 823
590 832
668 286
729 653
604 619
575 811
424 428
746 656
488 497
970 628
861 201
413 360
530 236
752 33
122 655
724 702
292 672
387 400
332 823
621 594
711 713
680 524
529 216
958 588
264 557
557 319
678 599
340 454
445 906
448 797
477 188
201 482
313 567
633 441
659 365
847 318
541 546
449 663
321 383
753 306
13 611
569 793
405 242
668 794
759 910
327 513
619 598
188 616
978 788
490 748
693 671
444 786
534 535
764 914
742 852
598 636
